File : Instances/p58
Used 69s
38651

0 0 0 1 0 1 1 0 0 1 0 1 0 0 0 0 0 1 1 1 1 1 0 1 1 1 0 1 1 1 
18 19 21 27 5 6 21 28 18 28 29 28 3 3 28 18 3 20 27 27 18 21 5 24 23 18 27 19 29 5 19 19 29 21 27 6 20 9 24 21 18 9 6 29 9 19 3 21 19 20 24 24 24 24 9 6 11 9 18 25 29 17 18 20 3 11 23 17 28 25 18 6 19 9 5 23 20 23 9 24 23 17 9 25 29 20 6 5 27 25 28 6 25 25 5 3 11 6 17 28 28 21 25 18 29 17 29 24 18 3 19 29 27 6 11 9 28 25 17 9 9 11 17 19 29 21 5 11 19 17 28 24 25 20 23 9 3 3 28 23 11 27 11 11 25 5 24 21 27 25 27 17 23 17 3 11 5 21 3 3 3 27 23 24 5 27 5 29 3 21 23 20 19 20 6 5 17 20 29 20 5 21 24 19 11 9 28 23 17 21 21 21 6 29 25 6 25 21 20 19 
